
******************************************************************************
This program contains Ipopt, a library for large-scale nonlinear optimization.
 Ipopt is released as open source code under the Eclipse Public License (EPL).
         For more information visit http://projects.coin-or.org/Ipopt
******************************************************************************

This is Ipopt version 3.12.6, running with linear solver ma57.

Number of nonzeros in equality constraint Jacobian...:        0
Number of nonzeros in inequality constraint Jacobian.:    28546
Number of nonzeros in Lagrangian Hessian.............:    11803

Total number of variables............................:      175
                     variables with only lower bounds:        0
                variables with lower and upper bounds:        0
                     variables with only upper bounds:        0
Total number of equality constraints.................:        0
Total number of inequality constraints...............:     1050
        inequality constraints with only lower bounds:        0
   inequality constraints with lower and upper bounds:        0
        inequality constraints with only upper bounds:     1050

iter    objective    inf_pr   inf_du lg(mu)  ||d||  lg(rg) alpha_du alpha_pr  ls
   0  0.0000000e+00 4.98e-02 9.92e-01  -1.0 0.00e+00    -  0.00e+00 0.00e+00   0
   1  7.8368861e-01 2.86e-02 3.63e+00  -1.0 3.37e-01    -  6.84e-01 2.97e-01h  1
   2  3.6573758e+00 0.00e+00 2.57e-01  -1.0 2.83e-01    -  1.00e+00 9.59e-01h  1
   3  1.0629408e+00 0.00e+00 2.00e-07  -1.7 4.64e-02    -  1.00e+00 1.00e+00f  1
   4 -3.2994855e-01 0.00e+00 2.17e-01  -2.5 6.25e-02    -  8.89e-01 1.00e+00f  1
   5 -7.1086769e-01 0.00e+00 2.83e-08  -2.5 5.34e-02    -  1.00e+00 1.00e+00f  1
   6 -9.4476513e-01 0.00e+00 5.44e-02  -3.8 6.35e-02    -  8.91e-01 1.00e+00f  1
   7 -9.8039804e-01 0.00e+00 1.50e-09  -3.8 5.13e-02    -  1.00e+00 1.00e+00f  1
   8 -9.9402525e-01 0.00e+00 2.27e-03  -5.7 1.92e-02    -  9.34e-01 1.00e+00f  1
   9 -9.9428129e-01 0.00e+00 1.84e-11  -5.7 9.06e-03    -  1.00e+00 1.00e+00f  1
iter    objective    inf_pr   inf_du lg(mu)  ||d||  lg(rg) alpha_du alpha_pr  ls
  10 -9.9444475e-01 0.00e+00 9.59e-06  -8.6 2.91e-03    -  9.90e-01 1.00e+00f  1
Reallocating memory for MA57: lfact (268564)
  11 -9.9444642e-01 0.00e+00 2.53e-14  -8.6 3.31e-04    -  1.00e+00 1.00e+00f  1
  12 -9.9444657e-01 0.00e+00 9.33e-15  -9.0 4.91e-06    -  1.00e+00 1.00e+00h  1

Number of Iterations....: 12

                                   (scaled)                 (unscaled)
Objective...............:  -9.9444657351218213e-01   -9.9444657351218213e-01
Dual infeasibility......:   9.3258734068513149e-15    9.3258734068513149e-15
Constraint violation....:   0.0000000000000000e+00    0.0000000000000000e+00
Complementarity.........:   9.1371897293898490e-10    9.1371897293898490e-10
Overall NLP error.......:   9.1371897293898490e-10    9.1371897293898490e-10


Number of objective function evaluations             = 13
Number of objective gradient evaluations             = 13
Number of equality constraint evaluations            = 0
Number of inequality constraint evaluations          = 13
Number of equality constraint Jacobian evaluations   = 0
Number of inequality constraint Jacobian evaluations = 13
Number of Lagrangian Hessian evaluations             = 12
Total CPU secs in IPOPT (w/o function evaluations)   =      0.067
Total CPU secs in NLP function evaluations           =      0.027

EXIT: Optimal Solution Found.

************************ CUTEst statistics ************************


 Package used            :  IPOPT
 Problem                 :  GMNCASE2  
 # variables             =             175
 # constraints           =            1050
 # objective functions   =        0.2700000E+02
 # objective gradients   =        0.1400000E+02
 # objective Hessians    =        0.1300000E+02
 # Hessian-vector prdct  =        0.0000000E+00
 # constraints functions =        0.2800000E+02
 # constraints gradients =        0.1500000E+02
 # constraints Hessians  =        0.1300000E+02
 Exit code               =               0
 Final f                 =  -0.9944466E+00
 Set up time             =            0.14 seconds
 Solve time              =            0.23 seconds


******************************************************************

System Time =       0.0900000036 s.
